c b=5,c=97
p cnf 17 71
5 -10 0
2 4 5 -15 0
1 3 5 -16 0
-5 10 0
2 4 -5 15 0
2 4 -5 16 0
4 -9 0
1 3 4 -14 0
2 4 -17 0
1 3 -4 5 15 0
5 -17 0
1 3 -4 -5 -15 0
-4 -5 17 0
-4 9 0
1 3 -4 14 0
1 3 -4 -16 0
3 -8 0
2 3 -13 0
2 -3 5 -15 0
2 4 5 -16 0
2 -3 -5 15 0
2 -3 4 14 0
-3 -4 5 16 0
2 -4 -5 -16 0
2 -3 -4 -14 0
-3 8 0
2 -3 13 0
2 -7 0
1 2 -12 0
1 3 4 5 -15 0
1 3 4 -5 15 0
3 4 -5 16 0
1 -2 4 -14 0
3 4 -17 0
1 -2 -4 14 0
1 -2 3 13 0
-2 -3 4 5 15 0
-2 -3 4 -5 -15 0
-2 -3 -5 17 0
-2 -3 4 -16 0
1 -3 -4 5 -15 0
1 -3 -4 -5 15 0
-2 -3 -5 -16 0
1 -2 -3 -13 0
-2 7 0
1 -2 12 0
1 -6 0
1 -11 0
2 3 5 -16 0
2 3 4 -14 0
2 3 -4 5 15 0
2 3 -4 -5 -15 0
2 3 -4 14 0
2 3 -4 -16 0
-1 3 -13 0
-1 4 5 -16 0
-1 -4 -5 -16 0
-1 -3 13 0
-1 2 12 0
-1 -2 3 5 -15 0
-1 -2 3 -5 15 0
-1 -2 3 4 14 0
-1 -2 -4 5 16 0
-1 -2 3 -4 -14 0
-2 -3 4 -14 0
-1 -2 -4 5 -15 0
-1 -2 -4 -5 15 0
-2 -3 -4 14 0
-1 -2 -12 0
-1 6 0
-1 11 0
